 Code  1231
 Dimension, Fixed Cost
   100        3000
 Facility, Client, Transportation Cost
     1       11           0
     1       25           2
     1       26           2
     1       51           0
     1       56           4
     1       69           3
     1       71           3
     1       81           3
     1       84           0
     1       95           3
     2       19           0
     2       29           1
     2       40           3
     2       49           3
     2       57           1
     2       70           3
     2       74           2
     2       78           0
     2       82           3
     2       94           3
     3        7           2
     3        8           0
     3       10           3
     3       12           1
     3       18           0
     3       19           0
     3       22           0
     3       37           3
     3       57           2
     3       68           3
     4        4           0
     4        7           0
     4       24           2
     4       36           2
     4       38           2
     4       52           2
     4       53           3
     4       54           1
     4       56           1
     4      100           0
     5       12           2
     5       32           2
     5       33           3
     5       34           0
     5       41           2
     5       48           4
     5       50           1
     5       60           2
     5       61           3
     5       87           0
     6        2           4
     6       18           4
     6       27           4
     6       37           2
     6       38           4
     6       56           0
     6       57           1
     6       74           3
     6       81           4
     6       87           0
     7       12           3
     7       17           4
     7       30           3
     7       42           0
     7       44           0
     7       45           0
     7       66           3
     7       67           1
     7       72           3
     7       77           4
     8        2           4
     8       15           3
     8       27           1
     8       29           1
     8       36           3
     8       65           2
     8       66           2
     8       68           2
     8       78           0
     8       92           4
     9       10           0
     9       15           0
     9       16           2
     9       22           1
     9       24           4
     9       31           3
     9       39           2
     9       89           3
     9       95           2
     9       98           4
    10        5           1
    10        6           3
    10       14           3
    10       30           4
    10       38           2
    10       39           4
    10       66           4
    10       73           1
    10       76           0
    10       77           0
    11       11           3
    11       13           0
    11       33           1
    11       34           3
    11       36           4
    11       41           3
    11       48           2
    11       54           0
    11       58           0
    11       78           2
    12       19           1
    12       20           4
    12       24           1
    12       29           0
    12       31           4
    12       50           2
    12       63           4
    12       66           3
    12       74           0
    12       86           2
    13       40           3
    13       49           1
    13       60           2
    13       63           1
    13       68           3
    13       69           1
    13       70           1
    13       83           1
    13       89           2
    13       98           2
    14        7           1
    14        9           1
    14       15           2
    14       16           0
    14       28           1
    14       50           4
    14       58           1
    14       67           2
    14       68           2
    14       71           1
    15        8           2
    15       21           0
    15       44           3
    15       48           1
    15       52           2
    15       63           3
    15       69           2
    15       71           1
    15       82           1
    15       94           3
    16        1           0
    16        4           3
    16       12           4
    16       42           1
    16       56           4
    16       60           4
    16       62           0
    16       85           1
    16       93           4
    16       98           3
    17       14           1
    17       19           2
    17       37           2
    17       38           0
    17       41           1
    17       46           3
    17       56           0
    17       63           1
    17       78           3
    17       79           4
    18        2           4
    18        8           0
    18       18           0
    18       21           1
    18       28           0
    18       30           2
    18       41           4
    18       49           1
    18       55           0
    18       57           2
    19        7           4
    19       16           4
    19       29           4
    19       38           2
    19       51           2
    19       53           0
    19       57           2
    19       84           3
    19       88           0
    19       96           0
    20        9           1
    20       36           1
    20       40           1
    20       55           4
    20       61           2
    20       68           0
    20       78           1
    20       82           4
    20       90           3
    20       93           2
    21        2           0
    21        6           1
    21       22           3
    21       26           4
    21       54           3
    21       59           0
    21       72           1
    21       81           1
    21       87           0
    21      100           1
    22        9           2
    22       17           0
    22       48           1
    22       50           1
    22       64           1
    22       66           3
    22       72           1
    22       81           4
    22       86           0
    22       91           1
    23        9           2
    23       10           0
    23       13           2
    23       24           4
    23       34           0
    23       58           2
    23       67           2
    23       72           4
    23       74           1
    23       91           4
    24       17           1
    24       22           4
    24       26           1
    24       35           4
    24       41           0
    24       66           1
    24       71           2
    24       83           2
    24       86           0
    24       90           4
    25       18           2
    25       21           4
    25       28           4
    25       32           3
    25       40           0
    25       47           1
    25       56           0
    25       66           0
    25       71           1
    25       77           4
    26       22           0
    26       32           1
    26       49           0
    26       78           1
    26       81           3
    26       86           1
    26       89           0
    26       93           4
    26       97           1
    26       98           4
    27        1           4
    27        8           2
    27       11           0
    27       13           0
    27       44           2
    27       50           4
    27       51           0
    27       64           3
    27       66           1
    27       71           3
    28        6           0
    28       11           1
    28       14           2
    28       19           0
    28       31           4
    28       43           3
    28       68           2
    28       69           3
    28       88           4
    28       98           0
    29        7           3
    29       17           0
    29       20           2
    29       23           3
    29       33           4
    29       60           4
    29       62           3
    29       84           1
    29       87           4
    29       96           4
    30       10           4
    30       15           2
    30       35           2
    30       44           1
    30       61           0
    30       62           3
    30       87           3
    30       90           4
    30       94           1
    30       96           1
    31        4           1
    31       11           2
    31       40           2
    31       41           2
    31       60           2
    31       62           1
    31       68           4
    31       85           2
    31       90           1
    31       93           3
    32        7           3
    32       10           4
    32       21           1
    32       43           0
    32       44           1
    32       74           4
    32       75           4
    32       93           4
    32       94           4
    32       97           3
    33       19           2
    33       32           4
    33       48           2
    33       53           0
    33       70           2
    33       72           1
    33       81           3
    33       85           0
    33       87           2
    33       95           2
    34        8           1
    34       16           1
    34       41           2
    34       46           2
    34       63           2
    34       66           0
    34       67           0
    34       89           1
    34       93           1
    34       98           1
    35       12           2
    35       16           0
    35       19           2
    35       31           1
    35       38           3
    35       47           1
    35       49           4
    35       58           2
    35       62           1
    35       67           0
    36        1           2
    36        6           0
    36       11           0
    36       15           1
    36       23           4
    36       29           0
    36       67           0
    36       68           4
    36       86           1
    36       90           2
    37       10           0
    37       23           4
    37       28           1
    37       38           4
    37       50           0
    37       55           3
    37       59           4
    37       65           2
    37       95           3
    37       96           4
    38       16           0
    38       28           3
    38       30           3
    38       61           3
    38       70           2
    38       72           3
    38       73           1
    38       81           3
    38       87           3
    38       93           0
    39       15           3
    39       26           0
    39       29           4
    39       34           3
    39       37           1
    39       49           3
    39       53           2
    39       59           3
    39       60           3
    39       89           1
    40        4           3
    40        8           4
    40       13           3
    40       20           3
    40       24           3
    40       29           3
    40       30           3
    40       43           3
    40       50           3
    40       66           4
    41       18           1
    41       35           3
    41       37           0
    41       44           2
    41       46           1
    41       47           0
    41       52           4
    41       55           1
    41       72           3
    41       91           4
    42       15           0
    42       40           3
    42       42           2
    42       56           2
    42       58           3
    42       61           4
    42       72           1
    42       82           3
    42       92           1
    42       97           0
    43        7           2
    43        9           0
    43       27           2
    43       33           3
    43       41           0
    43       45           2
    43       46           4
    43       48           0
    43       51           4
    43       60           2
    44        2           3
    44        4           0
    44       18           3
    44       19           3
    44       54           4
    44       63           3
    44       66           2
    44       74           2
    44       79           1
    44      100           3
    45        1           3
    45        3           0
    45       22           3
    45       34           4
    45       40           2
    45       54           2
    45       56           4
    45       60           0
    45       62           0
    45       70           4
    46        4           1
    46       15           3
    46       23           4
    46       29           1
    46       35           4
    46       46           0
    46       58           0
    46       68           3
    46       86           3
    46       90           3
    47        7           0
    47       13           0
    47       30           3
    47       32           2
    47       40           1
    47       42           1
    47       69           3
    47       70           3
    47       75           0
    47       87           1
    48        9           1
    48       29           2
    48       49           2
    48       50           1
    48       52           0
    48       54           4
    48       60           1
    48       63           3
    48       66           3
    48       99           3
    49       17           4
    49       21           2
    49       24           0
    49       29           0
    49       45           3
    49       52           4
    49       56           2
    49       62           3
    49       68           4
    49       84           0
    50       45           2
    50       56           4
    50       61           1
    50       66           3
    50       71           0
    50       72           2
    50       79           2
    50       88           1
    50       94           2
    50       99           4
    51        1           3
    51        9           0
    51       13           0
    51       34           0
    51       43           2
    51       48           3
    51       62           2
    51       67           3
    51       70           1
    51       81           4
    52       23           3
    52       27           4
    52       30           4
    52       34           0
    52       42           2
    52       62           4
    52       73           4
    52       77           4
    52       84           1
    52       95           3
    53       10           1
    53       13           4
    53       25           1
    53       43           2
    53       58           2
    53       63           1
    53       75           2
    53       77           4
    53       88           2
    53      100           2
    54        9           1
    54       21           3
    54       26           2
    54       33           1
    54       46           2
    54       47           4
    54       73           0
    54       79           2
    54       81           3
    54       92           1
    55        3           4
    55       14           1
    55       17           4
    55       23           1
    55       38           3
    55       51           4
    55       67           2
    55       76           0
    55       82           2
    55       89           2
    56       44           1
    56       51           0
    56       56           3
    56       63           2
    56       69           3
    56       75           3
    56       82           1
    56       89           3
    56       90           3
    56       98           3
    57       24           4
    57       28           0
    57       35           3
    57       51           4
    57       52           4
    57       57           0
    57       61           0
    57       71           1
    57       76           3
    57       87           4
    58        4           0
    58       32           0
    58       48           0
    58       54           2
    58       56           3
    58       61           4
    58       67           1
    58       82           4
    58       86           0
    58       91           4
    59        3           4
    59        8           0
    59       17           0
    59       38           3
    59       40           3
    59       45           0
    59       63           0
    59       67           2
    59       78           2
    59       85           1
    60        3           4
    60       14           3
    60       19           2
    60       30           1
    60       44           1
    60       46           4
    60       59           2
    60       81           1
    60       99           4
    60      100           4
    61       15           3
    61       42           2
    61       47           3
    61       70           3
    61       71           1
    61       73           0
    61       75           1
    61       77           3
    61       82           0
    61       99           0
    62        3           1
    62       20           3
    62       37           0
    62       40           3
    62       53           4
    62       61           0
    62       65           4
    62       72           2
    62       81           4
    62       86           3
    63       22           4
    63       28           0
    63       30           0
    63       38           4
    63       45           2
    63       47           4
    63       52           4
    63       69           4
    63       84           4
    63      100           3
    64        1           1
    64       19           2
    64       22           0
    64       28           1
    64       32           1
    64       44           3
    64       52           3
    64       56           1
    64       59           0
    64       76           4
    65        4           0
    65        7           3
    65        9           2
    65       11           2
    65       41           2
    65       48           1
    65       65           3
    65       76           0
    65       88           4
    65       98           0
    66        6           0
    66        8           1
    66       29           4
    66       41           4
    66       49           0
    66       56           1
    66       77           4
    66       88           1
    66       91           3
    66       92           0
    67        2           0
    67        3           3
    67        6           0
    67       31           0
    67       41           4
    67       44           2
    67       49           4
    67       86           1
    67       89           3
    67       90           0
    68        2           1
    68       41           0
    68       44           2
    68       48           3
    68       55           4
    68       64           0
    68       81           0
    68       87           2
    68       96           3
    68       98           2
    69       12           2
    69       51           2
    69       52           3
    69       56           2
    69       60           0
    69       62           0
    69       84           1
    69       95           2
    69       96           1
    69       98           3
    70        2           4
    70       18           0
    70       27           4
    70       28           1
    70       30           2
    70       46           4
    70       48           0
    70       88           1
    70       91           1
    70      100           1
    71       20           4
    71       25           0
    71       28           3
    71       39           2
    71       40           1
    71       43           2
    71       45           0
    71       54           0
    71       67           3
    71       81           0
    72       22           0
    72       35           0
    72       45           0
    72       54           4
    72       59           1
    72       61           4
    72       71           2
    72       75           1
    72       87           2
    72       95           0
    73       16           1
    73       20           2
    73       24           4
    73       35           0
    73       51           2
    73       64           2
    73       73           0
    73       77           2
    73       80           2
    73       83           0
    74        6           4
    74       12           1
    74       14           3
    74       15           4
    74       23           2
    74       33           3
    74       40           4
    74       65           1
    74       77           1
    74       89           2
    75       12           1
    75       27           0
    75       48           4
    75       49           3
    75       51           4
    75       61           4
    75       71           4
    75       79           0
    75       86           0
    75       87           4
    76        3           4
    76       17           1
    76       39           3
    76       42           0
    76       46           1
    76       53           2
    76       85           3
    76       86           0
    76       89           4
    76       96           0
    77        4           2
    77       20           4
    77       51           0
    77       56           3
    77       65           4
    77       76           2
    77       77           4
    77       78           2
    77       93           4
    77       97           2
    78       27           4
    78       29           0
    78       62           1
    78       72           2
    78       76           0
    78       82           3
    78       91           2
    78       92           2
    78       95           3
    78       96           0
    79       12           1
    79       19           2
    79       35           1
    79       51           0
    79       55           0
    79       58           4
    79       70           4
    79       75           1
    79       83           3
    79       85           4
    80        7           2
    80       17           4
    80       37           1
    80       54           2
    80       57           0
    80       58           0
    80       64           2
    80       78           0
    80       88           0
    80       99           0
    81       16           0
    81       32           2
    81       45           0
    81       55           2
    81       60           0
    81       83           0
    81       84           3
    81       86           3
    81       90           2
    81       94           4
    82       19           0
    82       22           0
    82       35           2
    82       39           4
    82       45           0
    82       51           1
    82       54           2
    82       66           1
    82       72           3
    82       91           0
    83        4           2
    83       16           4
    83       34           4
    83       54           4
    83       59           2
    83       61           0
    83       64           0
    83       92           1
    83       98           0
    83       99           1
    84        5           2
    84       14           2
    84       17           4
    84       34           1
    84       49           4
    84       50           2
    84       72           3
    84       73           2
    84       78           1
    84       90           2
    85       13           3
    85       28           3
    85       45           0
    85       52           2
    85       54           3
    85       56           1
    85       78           4
    85       80           3
    85       96           3
    85      100           4
    86        1           1
    86        2           0
    86       31           4
    86       35           2
    86       38           0
    86       48           3
    86       55           1
    86       70           0
    86       92           0
    86       93           4
    87        9           0
    87       21           0
    87       43           1
    87       53           1
    87       54           1
    87       63           0
    87       64           1
    87       65           1
    87       76           0
    87       88           1
    88        7           1
    88       18           1
    88       29           2
    88       33           2
    88       48           0
    88       50           0
    88       72           4
    88       83           1
    88       86           2
    88       92           3
    89       14           0
    89       24           3
    89       29           3
    89       33           2
    89       38           3
    89       50           1
    89       57           2
    89       80           0
    89       88           4
    89       93           1
    90       15           2
    90       16           0
    90       21           2
    90       25           3
    90       26           1
    90       44           1
    90       55           3
    90       60           0
    90       69           4
    90       78           0
    91       12           4
    91       13           4
    91       16           4
    91       26           4
    91       41           1
    91       65           2
    91       70           1
    91       77           0
    91       93           3
    91       95           4
    92       14           4
    92       19           1
    92       20           2
    92       35           4
    92       39           3
    92       49           3
    92       54           0
    92       75           3
    92       78           1
    92       99           0
    93        3           3
    93        7           1
    93       29           4
    93       40           0
    93       41           4
    93       47           0
    93       57           2
    93       83           1
    93       91           3
    93       96           3
    94       19           1
    94       33           4
    94       62           2
    94       64           0
    94       65           2
    94       68           4
    94       72           3
    94       77           0
    94       91           4
    94       96           2
    95        9           2
    95       32           3
    95       35           3
    95       39           1
    95       56           1
    95       70           3
    95       78           2
    95       79           1
    95       89           4
    95       93           1
    96        3           1
    96        4           0
    96       12           1
    96       15           2
    96       39           0
    96       45           0
    96       63           1
    96       79           4
    96       87           0
    96       93           2
    97        6           1
    97       16           2
    97       20           2
    97       42           3
    97       51           4
    97       55           4
    97       65           1
    97       75           1
    97       82           2
    97       95           0
    98        2           0
    98       20           1
    98       23           3
    98       48           4
    98       53           4
    98       61           4
    98       68           3
    98       88           2
    98       89           4
    98      100           2
    99       10           1
    99       28           3
    99       30           3
    99       36           2
    99       38           3
    99       65           3
    99       66           3
    99       72           2
    99       81           2
    99       87           3
   100        3           2
   100        6           2
   100        9           2
   100       26           3
   100       31           3
   100       37           2
   100       38           2
   100       71           3
   100       86           0
   100       89           3
